32210.82 0
79 156 106 183 157 159 64 173 44 165 32 67 13 186 103 105 182 81 113 163 132 114 11 27 46 181 20 55 150 94 147 130 162 25 86 112 54 177 101 8 9 141 19 24 115 176 2 82 39 5 17 84 58 149 63 142 188 85 95 151 15 62 153 53 90 76 42 154 3 43 59 52 123 4 117 61 135 144 116 91 140 47 143 29 1 99 118 50 191 18 195 36 34 92 122 121 70 187 38 72 14 83 136 171 68 133 108 124 145 45 7 65 37 185 148 33 80 51 137 119 179 129 174 168 49 0 12 178 87 26 23 164 40 146 78 180 155 199 125 161 31 104 96 166 93 16 89 139 138 97 169 48 69 152 88 10 167 109 22 120 41 172 184 21 192 110 102 57 127 28 190 196 198 107 128 131 35 175 158 66 74 6 111 73 197 194 100 189 60 170 126 75 160 134 71 56 30 98 77 193
